100
1000
209
207
205
204
204
202
201
200
200
197
194
193
188
187
185
180
176
168
166
161
159
159
156
154
154
148
145
145
143
138
135
132
128
125
124
122
121
118
116
114
112
112
108
106
105
105
104
101
97
95
94
93
87
85
85
72
72
71
70
69
68
64
63
63
62
61
61
58
55
54
53
52
52
51
50
48
48
47
45
43
40
37
34
33
27
27
27
24
24
23
22
22
20
20
18
17
16
15
14
13
